(declare-fun temp344_1 () (_ BitVec 64))
(declare-fun var527461 () (_ BitVec 64))
(declare-fun temp344_2 () (_ BitVec 64))
(declare-fun var789605 () (_ BitVec 64))
(declare-fun temp344_3 () (_ BitVec 64))
(declare-fun temp344_4 () (_ BitVec 64))
(declare-fun var134937 () (_ BitVec 64))
(declare-fun k!0 () Bool)
(declare-fun ARGNAME_rtol_NAMEEND () (_ BitVec 64))
(declare-fun temp344_5 () (_ BitVec 64))
(declare-fun ARGNAME_atol_NAMEEND () (_ BitVec 64))
(declare-fun temp344_6 () (_ BitVec 64))
(declare-fun var135081 () (_ BitVec 64))
(declare-fun temp344_7 () (_ BitVec 64))
(declare-fun var1052974 () (_ BitVec 64))
(declare-fun temp344_8 () (_ BitVec 64))
(declare-fun var1052975 () (_ BitVec 64))
(declare-fun var1311870 () (_ BitVec 64))
(declare-fun var1311871 () (_ BitVec 64))
(declare-fun temp344_9 () (_ BitVec 64))
(declare-fun var2036122 () (_ BitVec 64))
(declare-fun temp344_10 () (_ BitVec 64))
(declare-fun var2560410 () (_ BitVec 64))
(declare-fun temp344_11 () (_ BitVec 64))
(declare-fun var3478435 () (_ BitVec 64))
(declare-fun temp344_13 () (_ BitVec 64))
(declare-fun temp344_12 () (_ BitVec 64))
(declare-fun temp344_14 () (_ BitVec 64))
(declare-fun var3871651 () (_ BitVec 64))
(declare-fun temp344_16 () (_ BitVec 64))
(declare-fun temp344_15 () (_ BitVec 64))
(assert (= temp344_1 #x0000000000080000))
(assert (= var527461 temp344_1))
(assert (= temp344_2 #x0000000000080000))
(assert (= var789605 temp344_2))
(assert (= temp344_3 #x0000000000000000))
(assert (= var134937
   (ite (bvslt ARGNAME_rtol_NAMEEND temp344_3)
        #x0000000000000001
        #x0000000000000000)))
(assert (= temp344_4 #x0000000000000000))
(assert (= var134937 temp344_4))
(assert (= temp344_5 #x0000000000000000))
(assert (= ARGNAME_atol_NAMEEND temp344_5))
(assert (= temp344_6 #x0000000000000000))
(assert (= var135081
   (ite (= ARGNAME_rtol_NAMEEND temp344_6)
        #x0000000000000001
        #x0000000000000000)))
(assert (= temp344_7 #x0000000000000000))
(assert (= var1052974 temp344_7))
(assert (= temp344_8 #x0000000000000000))
(assert (= var1052975 temp344_8))
(assert (= var1311870 var1052974))
(assert (= var1311871 var1052975))
(assert (= temp344_9 #x0000000000000001))
(assert (= var2036122 temp344_9))
(assert (= temp344_10 #x0000000000000001))
(assert (= var2560410 temp344_10))
(assert (= temp344_11 #x000000000000000b))
(assert (= var3478435 temp344_11))
(assert (= temp344_13 #x0000000000000001))
(assert (= temp344_12 temp344_13))
(assert (= temp344_14 #x000000000000000b))
(assert (= var3871651 temp344_14))
(assert (= temp344_16 #x0000000000000001))
(assert (= temp344_15 temp344_16))
(model-add temp344_1 () (_ BitVec 64) #x0000000000080000)
(model-add var527461 () (_ BitVec 64) #x0000000000080000)
(model-add temp344_2 () (_ BitVec 64) #x0000000000080000)
(model-add var789605 () (_ BitVec 64) #x0000000000080000)
(model-add temp344_3 () (_ BitVec 64) #x0000000000000000)
(model-add temp344_4 () (_ BitVec 64) #x0000000000000000)
(model-add var134937 () (_ BitVec 64) #x0000000000000000)
(model-del k!0)
(model-add ARGNAME_rtol_NAMEEND
           ()
           (_ BitVec 64)
           (ite (or k!0 (= #x0000000000000000 #x8000000000000000))
                #x0000000000000000
                (bvsub #x0000000000000000 #x0000000000000001)))






